NAME          ClpDefau
ROWS
 N  OBJROW
 L  R0000000
 L  R0000001
 L  R0000002
 L  R0000003
 L  R0000004
 L  R0000005
 L  R0000006
 L  R0000007
 E  R0000008
 E  R0000009
 E  R0000010
 E  R0000011
 E  R0000012
 E  R0000013
 E  R0000014
 E  R0000015
 L  R0000016
 L  R0000017
 L  R0000018
 L  R0000019
COLUMNS
    C0000000  OBJROW    1.             R0000000  1.          
    C0000000  R0000008  1.          
    C0000001  OBJROW    1.             R0000000  1.          
    C0000001  R0000012  1.          
    C0000002  OBJROW    1.             R0000002  1.          
    C0000002  R0000012  1.          
    C0000003  R0000008   -1.           R0000010  1.          
    C0000003  R0000016  1.          
    C0000004  R0000008   -1.           R0000014  1.          
    C0000004  R0000017  1.          
    C0000005  R0000010  1.             R0000012   -1.        
    C0000005  R0000018  1.          
    C0000006  R0000012   -1.           R0000014  1.          
    C0000006  R0000019  1.          
    C0000007  R0000004  1.             R0000010   -1.        
    C0000008  R0000006  1.             R0000010   -1.        
    C0000009  R0000004  1.             R0000014   -1.        
    C0000010  R0000006  1.             R0000014   -1.        
    C0000011  OBJROW    1.             R0000001  1.          
    C0000011  R0000009  1.          
    C0000012  OBJROW    1.             R0000001  1.          
    C0000012  R0000013  1.          
    C0000013  OBJROW    1.             R0000003  1.          
    C0000013  R0000013  1.          
    C0000014  R0000009   -1.           R0000011  1.          
    C0000014  R0000016  1.          
    C0000015  R0000009   -1.           R0000015  1.          
    C0000015  R0000017  1.          
    C0000016  R0000011  1.             R0000013   -1.        
    C0000016  R0000018  1.          
    C0000017  R0000013   -1.           R0000015  1.          
    C0000017  R0000019  1.          
    C0000018  R0000005  1.             R0000011   -1.        
    C0000019  R0000007  1.             R0000011   -1.        
    C0000020  R0000005  1.             R0000015   -1.        
    C0000021  R0000007  1.             R0000015   -1.        
RHS
    RHS       R0000000  9.             R0000002  7.          
    RHS       R0000003  8.             R0000004  56.         
    RHS       R0000005  66.            R0000006  35.         
    RHS       R0000007  47.            R0000016  5.          
    RHS       R0000017  7.             R0000018  16.         
    RHS       R0000019  11.         
BOUNDS
 UI BOUND     C0000000         1e+30
 UI BOUND     C0000001         1e+30
 UI BOUND     C0000002         1e+30
 UI BOUND     C0000003         1e+30
 UI BOUND     C0000004         1e+30
 UI BOUND     C0000005         1e+30
 UI BOUND     C0000006         1e+30
 UI BOUND     C0000007         1e+30
 UI BOUND     C0000008         1e+30
 UI BOUND     C0000009         1e+30
 UI BOUND     C0000010         1e+30
 UI BOUND     C0000011         1e+30
 UI BOUND     C0000012         1e+30
 UI BOUND     C0000013         1e+30
 UI BOUND     C0000014         1e+30
 UI BOUND     C0000015         1e+30
 UI BOUND     C0000016         1e+30
 UI BOUND     C0000017         1e+30
 UI BOUND     C0000018         1e+30
 UI BOUND     C0000019         1e+30
 UI BOUND     C0000020         1e+30
 UI BOUND     C0000021         1e+30
ENDATA
